c A SAT instance generated from a 3-CNF formula that had 18 clauses and 19 variables
p cnf 19 18
-15 6 14 0
-17 11 -13 0
-17 -1 -11 0
15 5 -3 0
-19 1 12 0
-2 -13 -1 0
-15 -14 -6 0
11 -5 4 0
12 -17 -6 0
3 -19 16 0
5 -2 -18 0
-16 9 -18 0
17 13 -6 0
11 -2 -6 0
-14 7 12 0
-14 2 1 0
-1 13 9 0
-12 5 10 0
